NAME : GeneratedProblem
COMMENT : SVGCrosshatch
TYPE : TSP
DIMENSION : 24
EDGE_WEIGHT_TYPE : EUC_2D
NODE_COORD_SECTION
1 6900 8100
2 6900 8200
3 7000 7900
4 7000 8000
5 7000 8100
6 7000 8200
7 7100 7700
8 7100 7800
9 7100 7900
10 7100 8000
11 7100 8100
12 7100 8200
13 7200 7700
14 7200 7800
15 7200 7900
16 7200 8000
17 7200 8100
18 7200 8200
19 7300 7900
20 7300 8000
21 7300 8100
22 7300 8200
23 7400 8100
24 7400 8200
EOF
